4 10 18 14 6 15 0 11 8 17 12 9 1 5 19 7 2 13 16 3  
4 10 18 14 6 11 0 8 15 17 12 9 1 7 19 5 2 13 16 3  
4 10 18 14 6 11 0 8 15 17 12 9 13 16 5 19 1 7 2 3  
4 10 18 14 6 15 0 8 11 12 17 16 7 5 9 13 2 1 3 19  
4 10 18 14 6 0 8 15 11 17 12 9 13 16 5 2 7 3 1 19  
4 10 18 14 6 15 0 11 8 17 12 9 1 5 19 7 2 13 16 3  
4 10 18 14 6 15 0 8 11 17 12 7 16 5 9 13 2 1 3 19  
4 10 18 14 6 11 0 8 15 17 12 9 13 16 5 2 7 1 3 19  
4 10 18 14 6 15 0 8 11 17 12 7 9 1 5 19 2 13 16 3  
4 10 18 14 6 11 0 8 15 17 12 9 19 16 5 2 7 3 1 13  
4 10 18 14 6 11 0 8 15 17 12 9 19 16 5 2 7 3 1 13  
4 10 18 14 6 11 0 8 15 17 12 9 19 16 5 2 13 7 3 1  
4 10 18 14 6 11 0 8 15 17 12 9 13 16 7 1 5 2 3 19  
4 10 18 14 6 11 0 8 15 17 12 9 19 16 5 2 7 3 1 13  
4 10 18 15 6 14 0 8 11 12 17 1 5 7 9 13 2 19 16 3  
4 10 18 14 6 11 7 8 15 17 12 9 13 16 5 2 0 1 19 3  
4 10 18 14 6 11 17 8 15 0 12 9 19 16 5 7 2 3 1 13  
4 10 18 14 6 11 17 8 15 0 12 9 19 16 5 2 7 1 13 3  
4 10 18 14 6 11 0 8 15 17 12 9 19 16 5 13 1 7 2 3  
4 10 18 14 6 11 7 8 15 0 12 9 17 1 2 19 5 13 16 3  
4 10 18 15 6 14 17 8 11 12 0 1 5 7 9 13 2 19 16 3  
4 10 18 14 15 6 7 8 11 0 12 17 1 5 9 13 2 19 16 3  
4 10 18 14 6 11 17 8 15 0 12 9 19 16 5 2 13 7 3 1  
4 10 18 14 6 11 0 8 15 17 12 9 13 1 16 5 7 2 3 19  
4 10 18 14 6 11 0 8 15 17 12 9 19 16 5 13 7 1 2 3  
4 10 6 18 15 14 0 8 11 17 12 7 9 16 13 5 2 3 1 19  
4 10 18 14 6 11 0 8 15 17 12 9 13 16 5 19 1 7 2 3  
4 10 18 14 6 11 7 8 15 0 16 17 12 5 9 13 2 1 3 19  
4 10 18 14 6 11 0 8 15 17 16 12 5 7 9 13 2 1 3 19  
4 10 18 14 6 11 7 8 15 17 12 9 13 16 5 0 2 1 3 19  
